%%% static parameters %%%
timespan = 1;
Clients_N = [1000];
Demand_W = [15];
Lt0 = [4];
Lt1 = [4];
SS_ = [0.85];
DS_D = [20];
K = [200];
MA = [500];
HC = [0.05];
%%% dynamic parameters %%%
lost_ratio_sales_ret_th = 0.002115429062428276;
lost_ratio_sales_ret_w = 45;
lost_ratio_sales_dis_th = 0.0002760973683845747;
lost_ratio_sales_dis_w = 100;
lost_ratio_sales_fac_th = 0.0075074516821182005;
lost_ratio_sales_fac_w = 3;
stock_customer_MA_mean_relative_th = 0.04879679533971826;
stock_customer_MA_mean_relative_w = 33;
stock_distributor_MA_mean_relative_th = 0.8438927154172421;
stock_distributor_MA_mean_relative_w = 29;
stock_retailer_MA_mean_relative_th = 0.7291661889437628;
stock_retailer_MA_mean_relative_w = 58;
stock_factory_MA_mean_relative_th = 0.11054233555274928;
stock_factory_MA_mean_relative_w = 64;
